c 191_3_checker_6cl.cnf
c
c field = 191
c formula set type = 3_checker_6cl
c
p cnf 6 30
374 
376 
378 
-373 
-370 
-382 
375 
377 
379 
-372 
-371 
-383 
374 
376 
378 
-383 
-372 
-384 
375 
377 
379 
-382 
-373 
-385 
376 
378 
382 
-375 
-372 
-384 
377 
379 
383 
-374 
-373 
-385 
376 
378 
382 
-385 
-374 
-386 
377 
379 
383 
-384 
-375 
-387 
378 
382 
384 
-377 
-374 
-386 
379 
383 
385 
-376 
-375 
-387 
378 
382 
384 
-387 
-376 
-388 
379 
383 
385 
-386 
-377 
-389 
382 
384 
386 
-379 
-376 
-388 
383 
385 
387 
-378 
-377 
-389 
290 
320 
350 
-261 
-230 
-410 
291 
321 
351 
-260 
-231 
-411 
290 
320 
350 
-411 
-260 
-440 
291 
321 
351 
-410 
-261 
-441 
320 
350 
410 
-291 
-260 
-440 
321 
351 
411 
-290 
-261 
-441 
284 
316 
348 
-253 
-220 
-412 
285 
317 
349 
-252 
-221 
-413 
284 
316 
348 
-413 
-252 
-444 
285 
317 
349 
-412 
-253 
-445 
316 
348 
412 
-285 
-252 
-444 
317 
349 
413 
-284 
-253 
-445 
296 
324 
352 
-409 
-268 
-436 
297 
325 
353 
-408 
-269 
-437 
324 
352 
408 
-297 
-268 
-436 
325 
353 
409 
-296 
-269 
-437 
